10
20
1020101
0
0
97 96 93 92 93 91 94 98 90 97 90 94 89 91 96 90 98 96 97 98 
1
0
55 50 55 54 53 52 52 50 50 59 54 54 57 48 50 49 50 52 54 54 
2
0
54 62 64 56 61 61 62 55 61 64 62 60 55 63 55 55 62 59 57 64 
3
0
80 75 77 82 77 79 83 82 78 75 83 81 80 82 79 78 76 77 81 84 
4
0
78 73 74 80 73 72 71 69 69 75 76 69 78 78 74 72 80 76 72 79 
5
0
68 60 67 59 63 59 64 60 62 63 58 58 62 69 62 65 68 69 64 65 
6
0
90 88 91 88 95 97 98 98 87 91 93 94 93 91 93 90 93 93 91 92 
7
0
68 66 64 65 65 69 74 65 66 70 69 70 70 70 72 73 70 64 68 72 
8
0
27 25 28 24 29 20 27 20 22 23 24 30 29 21 30 28 20 29 21 23 
9
0
90 89 90 91 96 94 97 92 91 95 89 95 89 94 88 96 94 91 88 97 
